
Gurobi 12.0.3 (linux64) logging started Fri Jan  2 00:11:39 2026

Set parameter LogFile to value "/home/bazzo/Scrivania/fjsp_rescheduling/simulations/logs/EX9/gurobi_exp9.log"
Set parameter OutputFlag to value 1
Gurobi Optimizer version 12.0.3 build v12.0.3rc0 (linux64 - "Ubuntu 22.04.5 LTS")

CPU model: Intel(R) Xeon(R) W-2145 CPU @ 3.70GHz, instruction set [SSE2|AVX|AVX2|AVX512]
Thread count: 8 physical cores, 16 logical processors, using up to 16 threads

Optimize a model with 6178 rows, 3761 columns and 27106 nonzeros
Model fingerprint: 0x60a03acb
Model has 10 quadratic constraints
Coefficient statistics:
  Matrix range     [1e+00, 1e+02]
  QMatrix range    [1e+00, 1e+00]
  QLMatrix range   [1e+00, 1e+00]
  Objective range  [0e+00, 0e+00]
  Bounds range     [1e+00, 1e+00]
  RHS range        [1e+00, 4e+02]
Presolve removed 5487 rows and 3427 columns
Presolve time: 0.00s
Presolved: 711 rows, 384 columns, 3170 nonzeros
Presolved model has 10 second-order cone constraints
Ordering time: 0.01s

Barrier statistics:
 AA' NZ     : 4.755e+04
 Factor NZ  : 1.183e+05 (roughly 1 MB of memory)
 Factor Ops : 2.469e+07 (less than 1 second per iteration)
 Threads    : 8

                  Objective                Residual
Iter       Primal          Dual         Primal    Dual     Compl     Time
   0   0.00000000e+00 -4.96837750e+02  4.99e+01 1.00e-01  2.53e+00     0s
   1   0.00000000e+00 -4.96331204e+02  9.58e+00 5.99e-03  5.37e-01     0s
   2   0.00000000e+00 -1.86862509e+02  2.89e+00 1.83e-03  1.66e-01     0s
   3   0.00000000e+00 -6.10006225e+01  1.61e-01 5.48e-04  4.84e-02     0s
   4   0.00000000e+00 -6.84210531e-01  9.24e-03 4.33e-06  5.32e-04     0s
   5   0.00000000e+00 -1.07592668e-03  1.02e-08 4.90e-09  8.14e-07     0s
   6   0.00000000e+00 -1.18353568e-06  2.76e-12 5.39e-12  8.95e-10     0s
   7   0.00000000e+00 -1.30191151e-09  3.14e-12 5.93e-15  9.85e-13     0s

Barrier solved model in 7 iterations and 0.05 seconds (0.02 work units)
Optimal objective 0.00000000e+00

Set parameter TimeLimit to value 2160
Set parameter Presolve to value 2
Set parameter MIPFocus to value 3
Set parameter Heuristics to value 0.1
Set parameter ImproveStartGap to value 0.5
Set parameter Presolve to value 2
Gurobi Optimizer version 12.0.3 build v12.0.3rc0 (linux64 - "Ubuntu 22.04.5 LTS")

CPU model: Intel(R) Xeon(R) W-2145 CPU @ 3.70GHz, instruction set [SSE2|AVX|AVX2|AVX512]
Thread count: 8 physical cores, 16 logical processors, using up to 16 threads

Non-default parameters:
TimeLimit  2160
Heuristics  0.1
MIPFocus  3
Presolve  2
ImproveStartGap  0.5

Optimize a model with 6178 rows, 3761 columns and 27106 nonzeros
Model fingerprint: 0x718571da
Model has 10 quadratic constraints
Variable types: 10 continuous, 3751 integer (3630 binary)
Coefficient statistics:
  Matrix range     [1e+00, 1e+02]
  QMatrix range    [1e+00, 1e+00]
  QLMatrix range   [1e+00, 1e+00]
  Objective range  [1e+00, 1e+00]
  Bounds range     [1e+00, 1e+00]
  RHS range        [1e+00, 4e+02]
Presolve removed 5511 rows and 3437 columns
Presolve time: 0.03s
Presolved: 667 rows, 324 columns, 3332 nonzeros
Presolved model has 10 quadratic constraint(s)
Variable types: 10 continuous, 314 integer (287 binary)
Root relaxation presolve removed 296 rows and 153 columns
Root relaxation presolved: 371 rows, 171 columns, 1940 nonzeros


Root relaxation: objective 0.000000e+00, 19 iterations, 0.00 seconds (0.00 work units)

    Nodes    |    Current Node    |     Objective Bounds      |     Work
 Expl Unexpl |  Obj  Depth IntInf | Incumbent    BestBd   Gap | It/Node Time

H    0     0                      34.0000000    0.00000   100%     -    0s
*    0     0               0      34.0000000    0.00000   100%     -    0s
     0     0    0.00000    0   12   34.00000    0.00000   100%     -    0s
H    0     0                      29.0000000    0.00000   100%     -    0s
H    0     0                      28.0000000    0.00000   100%     -    0s
H    0     0                      16.0000000    0.00000   100%     -    0s
H    0     0                      15.0000000    0.00000   100%     -    0s
H    0     0                      14.0000000    0.00000   100%     -    0s
H    0     0                       5.0000000    0.00000   100%     -    0s
H    0     0                       4.0000000    0.00000   100%     -    0s
*    0     0               0       4.0000000    0.00000   100%     -    0s
     0     0    0.00000    0    4    4.00000    0.00000   100%     -    0s
     0     0    0.00000    0   10    4.00000    0.00000   100%     -    0s
H    0     0                       3.0000000    1.00000  66.7%     -    0s
     0     0    1.00000    0    6    3.00000    1.00000  66.7%     -    0s

Cutting planes:
  Gomory: 6
  Cover: 2
  Implied bound: 1
  MIR: 1
  Flow cover: 9
  RLT: 1

Explored 1 nodes (190 simplex iterations) in 0.10 seconds (0.08 work units)
Thread count was 16 (of 16 available processors)

Solution count 9: 3 4 5 ... 34

Optimal solution found (tolerance 1.00e-04)
Best objective 3.000000000000e+00, best bound 3.000000000000e+00, gap 0.0000%

User-callback calls 947, time in user-callback 0.00 sec
Set parameter TimeLimit to value 1080
Gurobi Optimizer version 12.0.3 build v12.0.3rc0 (linux64 - "Ubuntu 22.04.5 LTS")

CPU model: Intel(R) Xeon(R) W-2145 CPU @ 3.70GHz, instruction set [SSE2|AVX|AVX2|AVX512]
Thread count: 8 physical cores, 16 logical processors, using up to 16 threads

Non-default parameters:
TimeLimit  1080
Heuristics  0.1
MIPFocus  3
Presolve  2
ImproveStartGap  0.5

Optimize a model with 6179 rows, 3761 columns and 27116 nonzeros
Model fingerprint: 0xbcde0796
Model has 10 quadratic constraints
Variable types: 10 continuous, 3751 integer (3630 binary)
Coefficient statistics:
  Matrix range     [1e+00, 1e+02]
  QMatrix range    [1e+00, 1e+00]
  QLMatrix range   [1e+00, 1e+00]
  Objective range  [5e-01, 5e-01]
  Bounds range     [1e+00, 1e+00]
  RHS range        [1e+00, 4e+02]

MIP start from previous solve produced solution with objective 57.5 (0.01s)
Loaded MIP start from previous solve with objective 57.5

Presolve removed 6179 rows and 3761 columns
Presolve time: 0.02s
Presolve: All rows and columns removed

Explored 0 nodes (0 simplex iterations) in 0.02 seconds (0.02 work units)
Thread count was 1 (of 16 available processors)

Solution count 2: 1 57.5 

Optimal solution found (tolerance 1.00e-04)
Best objective 1.000000000000e+00, best bound 1.000000000000e+00, gap 0.0000%

User-callback calls 980, time in user-callback 0.00 sec
Set parameter TimeLimit to value 360
Gurobi Optimizer version 12.0.3 build v12.0.3rc0 (linux64 - "Ubuntu 22.04.5 LTS")

CPU model: Intel(R) Xeon(R) W-2145 CPU @ 3.70GHz, instruction set [SSE2|AVX|AVX2|AVX512]
Thread count: 8 physical cores, 16 logical processors, using up to 16 threads

Non-default parameters:
TimeLimit  360
Heuristics  0.1
MIPFocus  3
Presolve  2
ImproveStartGap  0.5

Optimize a model with 6181 rows, 3761 columns and 27241 nonzeros
Model fingerprint: 0x3ba1fd8e
Model has 10 quadratic constraints
Variable types: 10 continuous, 3751 integer (3630 binary)
Coefficient statistics:
  Matrix range     [5e-01, 1e+02]
  QMatrix range    [1e+00, 1e+00]
  QLMatrix range   [1e+00, 1e+00]
  Objective range  [1e+00, 1e+00]
  Bounds range     [1e+00, 1e+00]
  RHS range        [1e+00, 4e+02]

MIP start from previous solve produced solution with objective 41 (0.00s)
Loaded MIP start from previous solve with objective 41

Presolve removed 6181 rows and 3761 columns
Presolve time: 0.01s
Presolve: All rows and columns removed

Explored 0 nodes (0 simplex iterations) in 0.01 seconds (0.01 work units)
Thread count was 1 (of 16 available processors)

Solution count 1: 41 

Optimal solution found (tolerance 1.00e-04)
Best objective 4.100000000000e+01, best bound 4.100000000000e+01, gap 0.0000%

User-callback calls 481, time in user-callback 0.00 sec

Gurobi 12.0.3 (linux64) logging started Fri Jan  2 01:13:17 2026

Set parameter LogFile to value "/home/bazzo/Scrivania/fjsp_rescheduling/simulations/logs/EX9/gurobi_exp9.log"
Set parameter OutputFlag to value 1
Set parameter TimeLimit to value 2160
Set parameter Presolve to value 2
Set parameter MIPFocus to value 3
Set parameter Heuristics to value 0.1
Set parameter ImproveStartGap to value 0.5
Set parameter Presolve to value 2
Gurobi Optimizer version 12.0.3 build v12.0.3rc0 (linux64 - "Ubuntu 22.04.5 LTS")

CPU model: Intel(R) Xeon(R) W-2145 CPU @ 3.70GHz, instruction set [SSE2|AVX|AVX2|AVX512]
Thread count: 8 physical cores, 16 logical processors, using up to 16 threads

Non-default parameters:
TimeLimit  2160
Heuristics  0.1
MIPFocus  3
Presolve  2
ImproveStartGap  0.5

Optimize a model with 6178 rows, 3761 columns and 27106 nonzeros
Model fingerprint: 0x718571da
Model has 10 quadratic constraints
Variable types: 10 continuous, 3751 integer (3630 binary)
Coefficient statistics:
  Matrix range     [1e+00, 1e+02]
  QMatrix range    [1e+00, 1e+00]
  QLMatrix range   [1e+00, 1e+00]
  Objective range  [1e+00, 1e+00]
  Bounds range     [1e+00, 1e+00]
  RHS range        [1e+00, 4e+02]
Presolve removed 5511 rows and 3437 columns
Presolve time: 0.03s
Presolved: 667 rows, 324 columns, 3332 nonzeros
Presolved model has 10 quadratic constraint(s)
Variable types: 10 continuous, 314 integer (287 binary)
Root relaxation presolve removed 296 rows and 153 columns
Root relaxation presolved: 371 rows, 171 columns, 1940 nonzeros


Root relaxation: objective 0.000000e+00, 19 iterations, 0.00 seconds (0.00 work units)

    Nodes    |    Current Node    |     Objective Bounds      |     Work
 Expl Unexpl |  Obj  Depth IntInf | Incumbent    BestBd   Gap | It/Node Time

H    0     0                      34.0000000    0.00000   100%     -    0s
*    0     0               0      34.0000000    0.00000   100%     -    0s
     0     0    0.00000    0   12   34.00000    0.00000   100%     -    0s
H    0     0                      29.0000000    0.00000   100%     -    0s
H    0     0                      28.0000000    0.00000   100%     -    0s
H    0     0                      16.0000000    0.00000   100%     -    0s
H    0     0                      15.0000000    0.00000   100%     -    0s
H    0     0                      14.0000000    0.00000   100%     -    0s
H    0     0                       5.0000000    0.00000   100%     -    0s
H    0     0                       4.0000000    0.00000   100%     -    0s
*    0     0               0       4.0000000    0.00000   100%     -    0s
     0     0    0.00000    0    4    4.00000    0.00000   100%     -    0s
     0     0    0.00000    0   10    4.00000    0.00000   100%     -    0s
H    0     0                       3.0000000    1.00000  66.7%     -    0s
     0     0    1.00000    0    6    3.00000    1.00000  66.7%     -    0s

Cutting planes:
  Gomory: 6
  Cover: 2
  Implied bound: 1
  MIR: 1
  Flow cover: 9
  RLT: 1

Explored 1 nodes (190 simplex iterations) in 0.12 seconds (0.08 work units)
Thread count was 16 (of 16 available processors)

Solution count 9: 3 4 5 ... 34

Optimal solution found (tolerance 1.00e-04)
Best objective 3.000000000000e+00, best bound 3.000000000000e+00, gap 0.0000%

User-callback calls 947, time in user-callback 0.00 sec
Set parameter TimeLimit to value 1080
Gurobi Optimizer version 12.0.3 build v12.0.3rc0 (linux64 - "Ubuntu 22.04.5 LTS")

CPU model: Intel(R) Xeon(R) W-2145 CPU @ 3.70GHz, instruction set [SSE2|AVX|AVX2|AVX512]
Thread count: 8 physical cores, 16 logical processors, using up to 16 threads

Non-default parameters:
TimeLimit  1080
Heuristics  0.1
MIPFocus  3
Presolve  2
ImproveStartGap  0.5

Optimize a model with 6179 rows, 3761 columns and 27116 nonzeros
Model fingerprint: 0xbcde0796
Model has 10 quadratic constraints
Variable types: 10 continuous, 3751 integer (3630 binary)
Coefficient statistics:
  Matrix range     [1e+00, 1e+02]
  QMatrix range    [1e+00, 1e+00]
  QLMatrix range   [1e+00, 1e+00]
  Objective range  [5e-01, 5e-01]
  Bounds range     [1e+00, 1e+00]
  RHS range        [1e+00, 4e+02]

MIP start from previous solve produced solution with objective 57.5 (0.00s)
Loaded MIP start from previous solve with objective 57.5

Presolve removed 6179 rows and 3761 columns
Presolve time: 0.01s
Presolve: All rows and columns removed

Explored 0 nodes (0 simplex iterations) in 0.02 seconds (0.02 work units)
Thread count was 1 (of 16 available processors)

Solution count 2: 1 57.5 

Optimal solution found (tolerance 1.00e-04)
Best objective 1.000000000000e+00, best bound 1.000000000000e+00, gap 0.0000%

User-callback calls 980, time in user-callback 0.00 sec
Set parameter TimeLimit to value 360
Gurobi Optimizer version 12.0.3 build v12.0.3rc0 (linux64 - "Ubuntu 22.04.5 LTS")

CPU model: Intel(R) Xeon(R) W-2145 CPU @ 3.70GHz, instruction set [SSE2|AVX|AVX2|AVX512]
Thread count: 8 physical cores, 16 logical processors, using up to 16 threads

Non-default parameters:
TimeLimit  360
Heuristics  0.1
MIPFocus  3
Presolve  2
ImproveStartGap  0.5

Optimize a model with 6181 rows, 3761 columns and 27241 nonzeros
Model fingerprint: 0x3ba1fd8e
Model has 10 quadratic constraints
Variable types: 10 continuous, 3751 integer (3630 binary)
Coefficient statistics:
  Matrix range     [5e-01, 1e+02]
  QMatrix range    [1e+00, 1e+00]
  QLMatrix range   [1e+00, 1e+00]
  Objective range  [1e+00, 1e+00]
  Bounds range     [1e+00, 1e+00]
  RHS range        [1e+00, 4e+02]

MIP start from previous solve produced solution with objective 41 (0.00s)
Loaded MIP start from previous solve with objective 41

Presolve removed 6181 rows and 3761 columns
Presolve time: 0.01s
Presolve: All rows and columns removed

Explored 0 nodes (0 simplex iterations) in 0.01 seconds (0.01 work units)
Thread count was 1 (of 16 available processors)

Solution count 1: 41 

Optimal solution found (tolerance 1.00e-04)
Best objective 4.100000000000e+01, best bound 4.100000000000e+01, gap 0.0000%

User-callback calls 482, time in user-callback 0.00 sec
